(set-logic ALL)
(declare-fun var0 () String)
(assert (str.in_re var0 (re.++ (re.union (re.union (re.* (re.union (re.+ (str.to_re "0")) (re.+ (str.to_re "11")))) (re.* (re.* (re.+ (str.to_re "222"))))) (re.union (re.+ (re.+ (re.union (str.to_re "3") (str.to_re "44")))) (re.+ (re.union (re.+ (str.to_re "5")) (re.+ (str.to_re "666")))))) (re.* (re.union (re.* (re.* (re.+ (str.to_re "7")))) (re.* (re.union (re.union (str.to_re "8") (str.to_re "99")) (re.union (str.to_re "a") (str.to_re "bb")))))))))
(assert (<= 15 (str.len var0)))
(check-sat)